SCIP Status        : solving was interrupted [time limit reached]
Total Time         :    3600.02
  solving          :    3600.00
  presolving       :       0.37 (included in solving)
  reading          :       0.02
  copying          :       1.68 (69 #copies) (minimal 0.00, maximal 0.09, average 0.02)
Original Problem   :
  Problem name     : bbbenchmark/g05_100.0.cut
  Variables        : 101 (100 binary, 0 integer, 0 implicit integer, 1 continuous)
  Constraints      : 1 initial, 1 maximal
  Objective        : minimize, 1 non-zeros (abs.min = 1, abs.max = 1)
Presolved Problem  :
  Problem name     : t_bbbenchmark/g05_100.0.cut
  Variables        : 1806 (100 binary, 0 integer, 1690 implicit integer, 16 continuous)
  Constraints      : 1736 initial, 7216 maximal
  Objective        : minimize, 1 non-zeros (abs.min = 1, abs.max = 1)
  Nonzeros         : 8521 constraint, 202 clique table
Presolvers         :   ExecTime  SetupTime  Calls  FixedVars   AggrVars   ChgTypes  ChgBounds   AddHoles    DelCons    AddCons   ChgSides   ChgCoefs
  boundshift       :       0.00       0.00      0          0          0          0          0          0          0          0          0          0
  convertinttobin  :       0.00       0.00      0          0          0          0          0          0          0          0          0          0
  domcol           :       0.00       0.00      1          0          0          0          0          0          0          0          0          0
  dualagg          :       0.00       0.00      0          0          0          0          0          0          0          0          0          0
  dualcomp         :       0.00       0.00      1          0          0          0          0          0          0          0          0          0
  dualinfer        :       0.00       0.00      0          0          0          0          0          0          0          0          0          0
  dualsparsify     :       0.00       0.00      1          0          0          0          0          0          0          0          0          0
  gateextraction   :       0.00       0.00      0          0          0          0          0          0          0          0          0          0
  implics          :       0.00       0.00      2          0          0          0          0          0          0          0          0          0
  inttobinary      :       0.00       0.00      0          0          0          0          0          0          0          0          0          0
  qpkktref         :       0.00       0.00      0          0          0          0          0          0          0          0          0          0
  redvub           :       0.00       0.00      0          0          0          0          0          0          0          0          0          0
  sparsify         :       0.00       0.00      1          0          0          0          0          0          0          0          0          0
  stuffing         :       0.00       0.00      0          0          0          0          0          0          0          0          0          0
  trivial          :       0.00       0.00      4          0          0          0          0          0          0          0          0          0
  tworowbnd        :       0.00       0.00      0          0          0          0          0          0          0          0          0          0
  dualfix          :       0.00       0.00      4          0          0          0          0          0          0          0          0          0
  genvbounds       :       0.00       0.00      0          0          0          0          0          0          0          0          0          0
  probing          :       0.29       0.00      1          0          0          0          0          0          0          0          0          0
  pseudoobj        :       0.00       0.00      1          0          0          0          1          0          0          0          0          0
  symmetry         :       0.00       0.00      0          0          0          0          0          0          0          0          0          0
  vbounds          :       0.00       0.00      1          0          0          0          0          0          0          0          0          0
  varbound         :       0.00       0.00      2          0          0          0          0          0          0          0          0          0
  and              :       0.01       0.00      2          0          0          0          0          0          0          0          0          0
  linear           :       0.00       0.00      2          0          0          0          0          0          0          0          0          0
  logicor          :       0.00       0.00      0          0          0          0          0          0          0          0          0          0
  bounddisjunction :       0.00       0.00      0          0          0          0          0          0          0          0          0          0
  nonlinear        :       0.07       0.02      5          0          0          0          1          0          0       1735          0          0
  benders          :       0.00       0.00      0          0          0          0          0          0          0          0          0          0
  components       :       0.00       0.00      1          0          0          0          0          0          0          0          0          0
  root node        :          -          -      -          0          -          -         14          -          -          -          -          -
Constraints        :     Number  MaxNumber  #Separate #Propagate    #EnfoLP    #EnfoRelax  #EnfoPS    #Check   #ResProp    Cutoffs    DomReds       Cuts    Applied      Conss   Children
  benderslp        :          0          0          0          0     127156          0          0       3300          0          0          0          0          0          0          0
  integral         :          0          0          0          0     127156          0          0       3300          0          0        655          0          0        398     253838
  varbound         :         15         15        168     727845          0          0          0         55          0          0      97705          0          0          0          0
  and              :       1690       1690     145066     768359          0          0          0         55     381854          2     751074        112        106          0          0
  linear           :         31+        47        168     768400          0          0          0         53        642         14     506922          0          0          0          0
  logicor          :          0+      5229          0     108529          0          0          0          0         98        387         35          0          0          0          0
  bounddisjunction :          0+       362          0      60644          0          0          0          0          1         24          4          0          0          0          0
  benders          :          0          0          0          0          0          0          0         21          0          0          0          0          0          0          0
  countsols        :          0          0          0          0          0          0          0         21          0          0          0          0          0          0          0
  components       :          0          0          0          0          0          0          0          0          0          0          0          0          0          0          0
Constraint Timings :  TotalTime  SetupTime   Separate  Propagate     EnfoLP     EnfoPS     EnfoRelax   Check    ResProp    SB-Prop
  benderslp        :       0.10       0.00       0.00       0.00       0.10       0.00       0.00       0.00       0.00       0.00
  integral         :      68.02       0.00       0.00       0.00      68.02       0.00       0.00       0.00       0.00       0.00
  varbound         :       1.34       0.00       0.00       1.34       0.00       0.00       0.00       0.00       0.00       0.00
  and              :     104.00       0.00      74.14      29.29       0.00       0.00       0.00       0.02       0.19       0.36
  linear           :       4.58       0.00       0.08       4.42       0.00       0.00       0.00       0.00       0.01       0.07
  logicor          :       8.31       0.00       0.00       8.31       0.00       0.00       0.00       0.00       0.00       0.00
  bounddisjunction :       0.79       0.00       0.00       0.79       0.00       0.00       0.00       0.00       0.00       0.00
  benders          :       0.00       0.00       0.00       0.00       0.00       0.00       0.00       0.00       0.00       0.00
  countsols        :       0.00       0.00       0.00       0.00       0.00       0.00       0.00       0.00       0.00       0.00
  components       :       0.23       0.00       0.00       0.23       0.00       0.00       0.00       0.00       0.00       0.00
Propagators        : #Propagate   #ResProp    Cutoffs    DomReds
  dualfix          :          4          0          0          0
  genvbounds       :          0          0          0          0
  nlobbt           :          0          0          0          0
  obbt             :          0          0          0          0
  probing          :          0          0          0          0
  pseudoobj        :     584298          0          0        158
  redcost          :     286901          0          0     146147
  rootredcost      :          7          0          0          0
  symmetry         :          0          0          0          0
  vbounds          :     151780          0          0          0
Propagator Timings :  TotalTime  SetupTime   Presolve  Propagate    ResProp    SB-Prop
  dualfix          :       0.00       0.00       0.00       0.00       0.00       0.00
  genvbounds       :       0.54       0.00       0.00       0.54       0.00       0.00
  nlobbt           :       0.00       0.00       0.00       0.00       0.00       0.00
  obbt             :       0.00       0.00       0.00       0.00       0.00       0.00
  probing          :       0.29       0.00       0.29       0.00       0.00       0.00
  pseudoobj        :       0.85       0.00       0.00       0.85       0.00       0.00
  redcost          :      17.39       0.00       0.00      17.39       0.00       0.00
  rootredcost      :       0.59       0.00       0.00       0.59       0.00       0.00
  symmetry         :       0.36       0.00       0.00       0.36       0.00       0.00
  vbounds          :       0.67       0.00       0.00       0.66       0.00       0.01
Conflict Analysis  :       Time      Calls    Success    DomReds  Conflicts   Literals    Reconvs ReconvLits   Dualrays   Nonzeros   LP Iters   (pool size: [10000,10000])
  propagation      :       0.02        414        326          -        420       69.3          0        0.0          -          -          -
  infeasible LP    :       0.09         55         55          -       2030      150.1          0        0.0        146      152.3          0
  bound exceed. LP :      15.00       4557       4301          -     107518      111.6          1       51.0          0        0.0      34306
  strong branching :       0.00          0          0          -          0        0.0          0        0.0          -          -          0
  pseudo solution  :       0.00          0          0          -          0        0.0          0        0.0          -          -          -
  applied globally :       0.46          -          -          0      24242      117.5          -          -        146          -          -
  applied locally  :          -          -          -          0          0        0.0          -          -          0          -          -
Separators         :   ExecTime  SetupTime      Calls  RootCalls    Cutoffs    DomReds  FoundCuts ViaPoolAdd  DirectAdd    Applied ViaPoolApp  DirectApp      Conss
  cut pool         :       3.56          -      27411        202          -          -      35459     691465          -          -          -          -          -    (maximal pool size:       3009)
  aggregation      :     335.59       0.00       4464        168          0          0         15         17          0         16         16          0          0
  > cmir           :          -          -          -          -          -          -          -         17          0         16         16          0          -
  > flowcover      :          -          -          -          -          -          -          -          0          0          0          0          0          -
  > knapsackcover  :          -          -          -          -          -          -          -          0          0          0          0          0          -
  cgmip            :       0.00       0.00          0          0          0          0          0          0          0          0          0          0          0
  clique           :       0.01       0.00        168        168          0          0          0          0          0          0          0          0          0
  closecuts        :       0.00       0.00          0          0          0          0          0          0          0          0          0          0          0
  convexproj       :       0.00       0.00          0          0          0          0          0          0          0          0          0          0          0
  disjunctive      :       0.00       0.00          0          0          0          0          0          0          0          0          0          0          0
  eccuts           :       0.00       0.00          0          0          0          0          0          0          0          0          0          0          0
  gauge            :       0.00       0.00          0          0          0          0          0          0          0          0          0          0          0
  gomory           :       0.00       0.00          0          0          0          0          0          0          0          0          0          0          0
  > gomorymi       :          -          -          -          -          -          -          -          0          0          0          0          0          -
  > strongcg       :          -          -          -          -          -          -          -          0          0          0          0          0          -
  impliedbounds    :       0.24       0.00       4464        168          0          0          0          0          0          0          0          0          0
  interlattice     :       0.54       0.00         80         80          0          0         80          0         80         80          0         80          0
  interminor       :       0.00       0.00          0          0          0          0          0          0          0          0          0          0          0
  intersub         :       2.24       0.00         40         40          0          0         40          0         40         40          0         40          0
  intobj           :       0.00       0.00          0          0          0          0          0          0          0          0          0          0          0
  mcf              :       0.00       0.00          1          1          0          0          0          0          0          0          0          0          0
  minor            :       0.02       0.00          0          0          0          0          0          0          0          0          0          0          0
  mixing           :       0.00       0.00       4464        168          0          0          0          0          0          0          0          0          0
  oddcycle         :       0.00       0.00          0          0          0          0          0          0          0          0          0          0          0
  rapidlearning    :       0.01       0.00          0          0          0          0          0          0          0          0          0          0          0
  rlt              :       0.00       0.00         10         10          0          0          0          0          0          0          0          0          0
  zerohalf         :      33.60       0.00       4057         20          0          0      35444     691448          0     113649     113649          0          0
Cutselectors       :   ExecTime  SetupTime      Calls  RootCalls   Selected     Forced   Filtered  RootSelec   RootForc   RootFilt 
  hybrid           :       0.69       0.00      11412        166     113891          0     577806        332          0         11
Pricers            :   ExecTime  SetupTime      Calls       Vars
  problem variables:       0.00          -          0          0
Branching Rules    :   ExecTime  SetupTime   BranchLP  BranchExt   BranchPS    Cutoffs    DomReds       Cuts      Conss   Children
  allfullstrong    :       0.00       0.00          0          0          0          0          0          0          0          0
  cloud            :       0.00       0.00          0          0          0          0          0          0          0          0
  distribution     :       0.00       0.00          0          0          0          0          0          0          0          0
  fullstrong       :       0.00       0.00          0          0          0          0          0          0          0          0
  inference        :       0.00       0.00          0          0          0          0          0          0          0          0
  leastinf         :       0.00       0.00          0          0          0          0          0          0          0          0
  lookahead        :       0.00       0.00          0          0          0          0          0          0          0          0
  mostinf          :       0.00       0.00          0          0          0          0          0          0          0          0
  multaggr         :       0.00       0.00          0          0          0          0          0          0          0          0
  nodereopt        :       0.00       0.00          0          0          0          0          0          0          0          0
  pscost           :       0.00       0.00          0          0          0          0          0          0          0          0
  random           :       0.00       0.00          0          0          0          0          0          0          0          0
  relpscost        :      67.57       0.00     127156          0          0          0        655          0        398     253838
  vanillafullstrong:       0.00       0.00          0          0          0          0          0          0          0          0
Primal Heuristics  :   ExecTime  SetupTime      Calls      Found       Best
  LP solutions     :       0.00          -          -          0          0
  relax solutions  :       0.00          -          -          0          0
  pseudo solutions :       0.00          -          -          0          0
  strong branching :       0.03          -          -          0          0
  actconsdiving    :       0.00       0.00          0          0          0
  adaptivediving   :       3.99       0.00         25          0          0
  alns             :       2.92       0.00         30          5          5
  bound            :       0.00       0.00          0          0          0
  clique           :       0.01       0.00          1          0          0
  coefdiving       :       0.00       0.00          0          0          0
  completesol      :       0.00       0.00          0          0          0
  conflictdiving   :     133.69       0.00        844          0          0
  crossover        :       0.69       0.00          4          0          0
  dins             :       0.00       0.00          0          0          0
  distributiondivin:      63.30       0.00        249          0          0
  dps              :       0.00       0.00          0          0          0
  dualval          :       0.00       0.00          0          0          0
  farkasdiving     :       0.02       0.00          0          0          0
  feaspump         :       0.46       0.00          1          1          1
  fixandinfer      :       0.00       0.00          0          0          0
  fracdiving       :      47.75       0.00        346          0          0
  gins             :       0.18       0.00          0          0          0
  guideddiving     :      47.32       0.00        337          1          1
  indicator        :       0.10       0.00          0          0          0
  indicatordiving  :       0.00       0.00          0          0          0
  intdiving        :       0.00       0.00          0          0          0
  intshifting      :       0.28       0.00         29          0          0
  linesearchdiving :      44.90       0.00        322          0          0
  localbranching   :       0.00       0.00          0          0          0
  locks            :       0.01       0.00          1          0          0
  lpface           :       0.20       0.00          0          0          0
  mpec             :     282.75       0.00         11          0          0
  multistart       :       0.00       0.00          0          0          0
  mutation         :       0.00       0.00          0          0          0
  nlpdiving        :      25.87       0.00          5          0          0
  objpscostdiving  :      55.80       0.00         49          3          1
  octane           :       0.00       0.00          0          0          0
  ofins            :       0.14       0.00          0          0          0
  oneopt           :       0.16       0.00         12          0          0
  padm             :       0.00       0.00          0          0          0
  proximity        :       0.00       0.00          0          0          0
  pscostdiving     :      47.53       0.00        280          1          1
  randrounding     :       1.08       0.00       3275          0          0
  rens             :       0.00       0.00          0          0          0
  reoptsols        :       0.00       0.00          0          0          0
  repair           :       0.00       0.00          0          0          0
  rins             :       3.37       0.00         36          1          1
  rootsoldiving    :      25.74       0.00         23          0          0
  rounding         :       1.64       0.00       5057          0          0
  shiftandpropagate:       0.00       0.00          0          0          0
  shifting         :      42.58       0.00      10338          3          3
  simplerounding   :       0.17       0.00          0          0          0
  subnlp           :     206.41       0.00          0          0          0
  trivial          :       0.00       0.00          2          2          2
  trivialnegation  :       0.00       0.00          0          0          0
  trustregion      :       0.00       0.00          0          0          0
  trysol           :       0.26       0.00          0          0          0
  twoopt           :       0.00       0.00          0          0          0
  undercover       :       1.56       0.00          1          1          1
  vbounds          :       0.00       0.00          0          0          0
  veclendiving     :      45.32       0.00        322          0          0
  zeroobj          :       0.00       0.00          0          0          0
  zirounding       :       0.45       0.00       1000          0          0
  other solutions  :          -          -          -          0          -
Diving (single)    :      Calls      Nodes   LP Iters Backtracks  Conflicts   MinDepth   MaxDepth   AvgDepth  RoundSols  NLeafSols  MinSolDpt  MaxSolDpt  AvgSolDpt
  actconsdiving    :          0          -          -          -          -          -          -          -          -          -          -          -          -
  coefdiving       :          0          -          -          -          -          -          -          -          -          -          -          -          -
  conflictdiving   :        844      38316    1175405        953      54779         55         87       64.8          0          -          -          -          -
  distributiondivin:        249       9819     405812        274       4310         52         74       58.0          0          -          -          -          -
  farkasdiving     :          0          -          -          -          -          -          -          -          -          -          -          -          -
  fracdiving       :        346      36445     401061         72        974         60        282      125.4          0          -          -          -          -
  guideddiving     :        337      32177     412860        108       2865         60        207      115.7          0          1        108        108      108.0
  indicatordiving  :          0          -          -          -          -          -          -          -          -          -          -          -          -
  linesearchdiving :        322      14903     402113        230      16051         50         91       65.9          0          -          -          -          -
  pscostdiving     :        280      13500     417718        292       6455         57         76       67.0          0          1         69         69       69.0
  veclendiving     :        322      14076     401937        304      22051         55         82       62.8          0          -          -          -          -
Diving (adaptive)  :      Calls      Nodes   LP Iters Backtracks  Conflicts   MinDepth   MaxDepth   AvgDepth  RoundSols  NLeafSols  MinSolDpt  MaxSolDpt  AvgSolDpt
  actconsdiving    :          3        123       4604          3         42         56         59       57.7          0          -          -          -          -
  coefdiving       :          7        358       7759          4        403         60         76       67.9          0          -          -          -          -
  conflictdiving   :          0          -          -          -          -          -          -          -          -          -          -          -          -
  distributiondivin:          0          -          -          -          -          -          -          -          -          -          -          -          -
  farkasdiving     :          0          -          -          -          -          -          -          -          -          -          -          -          -
  fracdiving       :          0          -          -          -          -          -          -          -          -          -          -          -          -
  guideddiving     :          2        155       2170          0         23         94        100       97.0          0          -          -          -          -
  indicatordiving  :          0          -          -          -          -          -          -          -          -          -          -          -          -
  linesearchdiving :          7        354       9765          4        308         58         77       68.4          0          -          -          -          -
  pscostdiving     :          1         49       1478          1         23         68         68       68.0          0          -          -          -          -
  veclendiving     :          5        235       6190          4        360         57         71       64.0          0          -          -          -          -
Neighborhoods      :      Calls  SetupTime  SolveTime SolveNodes       Sols       Best       Exp3  EpsGreedy        UCB TgtFixRate  Opt  Inf Node Stal  Sol  Usr Othr Actv
  rens             :          3       0.06       0.11         78          0          0    0.00000   -1.00000    0.46105      0.662    0    2    0    1    0    0    0    1
  rins             :          1       0.00       0.00          0          0          0    0.00000   -1.00000    0.07412      0.900    0    0    0    0    0    0    1    1
  mutation         :          3       0.04       0.25        345          2          2    0.00000   -1.00000    0.47424      0.587    0    2    0    1    0    0    0    1
  localbranching   :          2       0.15       0.12        163          0          0    0.00000   -1.00000    0.43905      0.850    0    1    0    1    0    0    0    1
  crossover        :          6       0.15       0.88        205          2          2    0.00000   -1.00000    0.47622      0.506    1    3    0    2    0    0    0    1
  proximity        :          2       0.02       0.08         65          0          0    0.00000   -1.00000    0.47591      0.850    0    1    0    1    0    0    0    1
  zeroobjective    :         12       0.56       0.31        672          1          1    0.00000   -1.00000    0.49416      0.865    1    5    0    6    0    0    0    1
  dins             :          1       0.00       0.00          0          0          0    0.00000   -1.00000    0.07412      0.900    0    0    0    0    0    0    1    1
  trustregion      :          0       0.00       0.00          0          0          0    0.00000   -1.00000    1.00000      0.900    0    0    0    0    0    0    0    0
Expressions        :   #IntEval  IntEvalTi   #RevProp  RevPropTi    DomReds    Cutoffs  #Estimate  EstimTime  Branching  #Simplify SimplifyTi Simplified
  pow              :          0       0.00          0       0.00          0          0          0       0.00          0          0       0.00          0
  prod             :       9900       0.00          0       0.00          0          0          0       0.00          0       6640       0.02          0
  sum              :          8       0.00          2       0.00          0          0          0       0.00          0          3       0.02          2
  var              :       6227       0.00          0       0.00          0          0          0       0.00          0      15288       0.00          0
  varidx           :          0       0.00          0       0.00          0          0          0       0.00          0          0       0.00          0
LP                 :       Time      Calls Iterations  Iter/call   Iter/sec  Time-0-It Calls-0-It    ItLimit
  primal LP        :     138.70      17795          0       0.00       0.00     138.59      17795
  dual LP          :    1569.02     245452    7772169      34.65    4953.52      10.47      21157
  lex dual LP      :       0.00          0          0       0.00          -
  barrier LP       :       0.00          0          0       0.00          -       0.00          0
  resolve instable :       0.00          0          0       0.00          -
  diving/probing LP:     443.92      14113    4075016     288.74    9179.62
  strong branching :      28.07       1371     163858     119.52    5837.48          -          -        612
    (at root node) :          -         24      11029     459.54          -
  conflict analysis:       6.17       3536      34306       9.70    5560.13
NLP relaxation     :
  solve time       :      25.81 (14 calls)
  convexity        :  nonconvex (46 linear rows, 0 convex ineq., 0 nonconvex ineq., 1690 nonlinear eq. or two-sided ineq.)
NLP Solvers        :  #Problems  ProblemTi    #Solves  SolveTime      #Iter  Time/Iter      #Okay #TimeLimit #IterLimit #LObjLimit #Interrupt  #NumError #EvalError  #OutOfMem #LicenseEr #OtherTerm   #GlobOpt    #LocOpt  #Feasible #LocInfeas #GlobInfea #Unbounded   #Unknown
  ipopt            :         12       7.90         40     310.39       1546       0.20         40          0          0          0          0          0          0          0          0          0          0         20          0         16          0          0          4
B&B Tree           :
  number of runs   :          1
  nodes            :     212324 (126919 internal, 85405 leaves)
  feasible leaves  :          0
  infeas. leaves   :         19
  objective leaves :      85386
  nodes (total)    :     212324 (126919 internal, 85405 leaves)
  nodes left       :      41366
  max depth        :         66
  max depth (total):         66
  backtracks       :      47130 (22.2%)
  early backtracks :          0 (0.0%)
  nodes exc. ref.  :          0 (0.0%)
  delayed cutoffs  :          5
  repropagations   :       2426 (352 domain reductions, 2 cutoffs)
  avg switch length:       6.36
  switching time   :     190.45
Estim. Tree Size   :     424946
Estimation Tree    : 253839 nodes (212473 visited, 126919 internal, 85554 leaves, 41366 open), weight: 0.0000 completed 0.1102
Estimations        :      estim      value      trend resolution     smooth
  wbe              : 8954998008591225          -          -          -          -
  tree-profile     :         -1          -          -          -          -
  gap              :    7601034    0.67833    0.00001        128    7770140
  tree-weight      :     424946    0.00000    0.00000        128     424486
  leaf-frequency   :    4198201    0.40266    0.00001        128    3863115
  ssg              :   20404353    0.82598   -0.00001        128   20602743
  open-nodes       :     424946 41366.00000   31.47545        128     424486
Root Node          :
  First LP value   : -1.00000000000000e+00
  First LP Iters   :       1630 (11642.86 Iter/sec)
  First LP Time    :       0.14
  Final Dual Bound : -9.40370557162137e-01
  Final Root Iters :       7245
  Root LP Estimate : -3.49781777533721e-01
Solution           :
  Solutions found  :         18 (16 improvements)
  First Solution   : +1.00000000000000e+05   (in run 1, after 0 nodes, 0.01 seconds, depth 0, found by <trivial>)
  Gap First Sol.   :   infinite
  Gap Last Sol.    :      50.38 %
  Primal Bound     : -5.64040404040402e-01   (in run 1, after 66377 nodes, 1486.32 seconds, depth 60, found by <alns>)
  Dual Bound       : -8.31518139439680e-01
  Gap              :      47.42 %
Integrals          :      Total       Avg%
  primal-dual      :  124171.72      34.49
  primal-ref       :          -          - (not evaluated)
  dual-ref         :          -          - (not evaluated)
